(declare-fun ExpandObjSwitcher () Real)
(declare-fun Constructed_Argument_t () String)
(declare-fun CreateAsClass () Bool)
(assert (= ExpandObjSwitcher 2.0))
(assert (= Constructed_Argument_t "null"))
(assert CreateAsClass)
(check-sat)
